letting n_nurses=25
letting n_days=7
letting n_shift_types=4
letting max_covers=12
letting t_covers=87
letting covers=[8,6,0,0,8,9,0,0,6,8,0,0,2,3,0,0,11,1,4,0,1,1,0,0,12,7,0,0]
letting prefes=[2,1,1,2,4,1,1,4,4,1,1,4,4,1,1,4,4,1,1,4,2,1,1,2,4,1,1,4,1,3,3,1,1,2,2,1,1,2,2,1,1,2,2,1,1,2,2,1,1,3,3,1,1,2,2,1,1,3,3,1,1,1,1,1,1,1,1,1,1,1,1,1,1,1,1,1,1,3,3,1,1,1,1,1,1,3,3,1,3,1,1,3,3,1,1,3,3,1,1,3,3,1,1,3,1,3,3,1,3,1,1,3,2,3,3,2,1,1,1,1,1,1,1,1,1,1,1,1,1,1,1,1,2,3,3,2,1,1,1,1,2,1,1,2,4,1,1,4,4,1,1,4,4,1,1,4,4,1,1,4,2,1,1,2,4,1,1,4,2,1,1,2,4,2,2,4,4,2,2,4,4,2,2,4,4,2,2,4,2,1,1,2,4,2,2,4,1,3,3,1,1,4,4,1,1,4,4,1,1,4,4,1,1,4,4,1,1,3,3,1,1,4,4,1,3,1,1,3,1,2,2,1,1,2,2,1,1,2,2,1,1,2,2,1,3,1,1,3,1,2,2,1,2,4,4,2,3,2,2,3,3,2,2,3,3,2,2,3,3,2,2,3,2,4,4,2,3,2,2,3,2,1,1,2,4,1,1,4,4,1,1,4,4,1,1,4,4,1,1,4,2,1,1,2,4,1,1,4,1,1,1,1,1,3,3,1,1,3,3,1,1,3,3,1,1,3,3,1,1,1,1,1,1,3,3,1,2,3,3,2,1,1,1,1,1,1,1,1,1,1,1,1,1,1,1,1,2,3,3,2,1,1,1,1,1,3,3,1,1,2,2,1,1,2,2,1,1,2,2,1,1,2,2,1,1,3,3,1,1,2,2,1,2,3,3,2,4,2,2,4,4,2,2,4,4,2,2,4,4,2,2,4,2,3,3,2,4,2,2,4,1,3,3,1,4,2,2,4,4,2,2,4,4,2,2,4,4,2,2,4,1,3,3,1,4,2,2,4,2,2,2,2,4,1,1,4,4,1,1,4,4,1,1,4,4,1,1,4,2,2,2,2,4,1,1,4,1,1,1,1,3,1,1,3,3,1,1,3,3,1,1,3,3,1,1,3,1,1,1,1,3,1,1,3,1,1,1,1,4,1,1,4,4,1,1,4,4,1,1,4,4,1,1,4,1,1,1,1,4,1,1,4,1,3,3,1,1,2,2,1,1,2,2,1,1,2,2,1,1,2,2,1,1,3,3,1,1,2,2,1,3,1,1,3,1,1,1,1,1,1,1,1,1,1,1,1,1,1,1,1,3,1,1,3,1,1,1,1,1,2,2,1,4,2,2,4,4,2,2,4,4,2,2,4,4,2,2,4,1,2,2,1,4,2,2,4,3,1,1,3,1,4,4,1,1,4,4,1,1,4,4,1,1,4,4,1,3,1,1,3,1,4,4,1,2,3,3,2,1,1,1,1,1,1,1,1,1,1,1,1,1,1,1,1,2,3,3,2,1,1,1,1,1,1,1,1,1,2,2,1,1,2,2,1,1,2,2,1,1,2,2,1,1,1,1,1,1,2,2,1]
letting ub =  221
